50
6427

35 905
596 408
435 379
260 535
462 435
178 355
713 266
976 925
198 969
310 267
466 9
879 908
656 365
746 9
681 766
63 94
176 68
270 502
584 348
82 7
89 364
117 698
730 10
451 447
948 72
590 872
558 626
188 168
851 925
965 877
227 187
702 712
936 458
609 377
607 25
751 395
239 527
149 476
527 602
297 806
208 904
716 299
317 660
239 759
812 612
208 354
22 294
695 192
285 73
769 145
